unsat
(forall ((A (_ BitVec 20))
         (B (_ BitVec 20))
         (C (_ BitVec 1))
         (D (_ BitVec 1))
         (E (_ BitVec 20))
         (F (_ BitVec 20))
         (G (_ BitVec 20))
         (H (_ BitVec 20))
         (I (_ BitVec 20))
         (J (_ BitVec 20))
         (K (_ BitVec 20))
         (L (_ BitVec 20))
         (M (_ BitVec 20))
         (N (_ BitVec 20))
         (O (_ BitVec 1))
         (P (_ BitVec 18))
         (Q (_ BitVec 20))
         (R (_ BitVec 20))
         (S (_ BitVec 20))
         (T (_ BitVec 1))
         (U (_ BitVec 20))
         (V (_ BitVec 20))
         (W (_ BitVec 20))
         (X (_ BitVec 1))
         (Y (_ BitVec 20))
         (Z (_ BitVec 20))
         (A1 (_ BitVec 18))
         (B1 (_ BitVec 20))
         (C1 (_ BitVec 20))
         (D1 (_ BitVec 20))
         (E1 (_ BitVec 20))
         (F1 (_ BitVec 38))
         (G1 (_ BitVec 20))
         (H1 (_ BitVec 1))
         (I1 (_ BitVec 20))
         (J1 (_ BitVec 20))
         (K1 (_ BitVec 20))
         (L1 (_ BitVec 22))
         (M1 (_ BitVec 20))
         (N1 (_ BitVec 20))
         (O1 (_ BitVec 20))
         (P1 (_ BitVec 1))
         (Q1 (_ BitVec 38))
         (R1 (_ BitVec 20))
         (S1 (_ BitVec 20))
         (T1 (_ BitVec 1))
         (U1 (_ BitVec 1))
         (V1 (_ BitVec 20))
         (W1 (_ BitVec 20))
         (X1 (_ BitVec 20))
         (Y1 (_ BitVec 20))
         (Z1 (_ BitVec 18))
         (A2 (_ BitVec 20))
         (B2 (_ BitVec 20))
         (C2 (_ BitVec 22))
         (D2 (_ BitVec 20))
         (E2 (_ BitVec 20))
         (F2 (_ BitVec 20))
         (G2 (_ BitVec 20))
         (H2 (_ BitVec 20))
         (I2 (_ BitVec 38))
         (J2 (_ BitVec 1))
         (K2 (_ BitVec 14))
         (L2 (_ BitVec 38))
         (M2 (_ BitVec 20))
         (N2 (_ BitVec 16))
         (O2 (_ BitVec 14))
         (P2 (_ BitVec 22))
         (Q2 (_ BitVec 14))
         (R2 (_ BitVec 22))
         (S2 (_ BitVec 38))
         (T2 (_ BitVec 30))
         (U2 (_ BitVec 30))
         (V2 (_ BitVec 20))
         (W2 (_ BitVec 20))
         (X2 (_ BitVec 20))
         (Y2 (_ BitVec 20))
         (Z2 (_ BitVec 20))
         (A3 (_ BitVec 20))
         (B3 (_ BitVec 20))
         (C3 (_ BitVec 16))
         (D3 (_ BitVec 30))
         (E3 (_ BitVec 1))
         (F3 (_ BitVec 38))
         (G3 (_ BitVec 30)))
  (! (let ((a!1 (or ((_ bit2bool 1) Y1)
                    ((_ bit2bool 1) Y)
                    ((_ bit2bool 0) Y1)
                    (not ((_ bit2bool 2) Y))
                    (not (= ((_ extract 1 1) R) #b1))))
           (a!2 (or ((_ bit2bool 1) Y1)
                    ((_ bit2bool 2) Y1)
                    ((_ bit2bool 0) Y1)
                    (not (= ((_ extract 2 2) R) #b1))
                    (= ((_ extract 2 2) Y) #b1)))
           (a!3 (= ((_ extract 33 2)
                     (bvadd (concat #x000 P2) ((_ extract 37 4) Q1)))
                   #x00000000))
           (a!4 ((_ extract 22 4)
                  (bvadd (concat #b000 ((_ extract 21 2) C2)) (concat #b0 L1))))
           (a!5 ((_ extract 3 2)
                  (bvadd (concat #b000 ((_ extract 21 2) C2)) (concat #b0 L1))))
           (a!6 (or ((_ bit2bool 0) C1)
                    ((_ bit2bool 2) C1)
                    (= ((_ extract 5 4) Q1) (bvmul #b11 ((_ extract 1 0) P2)))))
           (a!7 (or (not (= G1 #x00000))
                    (= (bvmul #b11 ((_ extract 1 0) L1)) ((_ extract 3 2) C2))))
           (a!8 (or ((_ bit2bool 0) C1)
                    ((_ bit2bool 2) K1)
                    (= ((_ extract 5 4) Q1) (bvmul #b11 ((_ extract 1 0) P2)))))
           (a!9 (or (not (= K1 #x00000))
                    (= ((_ extract 5 4) Q1) (bvmul #b11 ((_ extract 1 0) P2))))))
     (let ((a!10 (and (or (= F1 #b00000000000000000000000000000000000000)
                          (not (= W2 #x00000)))
                      (not ((_ bit2bool 3) O2))
                      (not ((_ bit2bool 2) O2))
                      (not ((_ bit2bool 1) O2))
                      (not ((_ bit2bool 0) O2))
                      (not ((_ bit2bool 1) Q2))
                      (not ((_ bit2bool 0) Q2))
                      (not (= ((_ extract 17 17) P) #b1))
                      (not (= ((_ extract 17 17) Z1) #b1))
                      (or ((_ bit2bool 0) A1)
                          ((_ bit2bool 0) P)
                          (not ((_ bit2bool 0) Z1)))
                      (= (bvmul #xffffffff (concat #b0000000000 R2))
                         ((_ extract 37 6) I2))
                      (or (not ((_ bit2bool 0) X)) (not (= O #b0)))
                      a!1
                      a!2
                      (or ((_ bit2bool 1) Y1)
                          ((_ bit2bool 2) Y1)
                          ((_ bit2bool 0) Y1)
                          (not ((_ bit2bool 1) Y))
                          (= ((_ extract 1 1) R) #b1))
                      a!3
                      (= a!4 #b0000000000000000000)
                      (= ((_ extract 37 6) I2) #x00000000)
                      (or ((_ bit2bool 1) Y)
                          (not (= R #x00000))
                          (not ((_ bit2bool 1) Y1)))
                      (or (not (= G1 #x00000)) (= ((_ extract 1 0) C2) #b00))
                      (or ((_ bit2bool 2) K) ((_ bit2bool 0) K) (= a!5 #b00))
                      a!6
                      (or ((_ bit2bool 1) K)
                          (= ((_ extract 3 2) C2) #b00)
                          (= ((_ extract 2 2) G1) #b1))
                      (or ((_ bit2bool 1) K)
                          (= ((_ extract 0 0) K) #b1)
                          (= ((_ extract 1 0) C2) #b00))
                      a!7
                      (or (not (= K1 #x00000)) (= ((_ extract 3 0) Q1) #x0))
                      (or ((_ bit2bool 2) L1)
                          (= a!5 #b00)
                          (= ((_ extract 1 1) G1) #b1))
                      a!8
                      (or ((_ bit2bool 0) K)
                          (= a!5 #b00)
                          (= ((_ extract 2 2) G1) #b1))
                      (or (not (= G1 #x00000)) (= a!5 #b00))
                      a!9
                      (or (not (= N #x00000)) (= ((_ extract 5 0) I2) #b000000)))))
       (= (INV!slice!1 A
                       B
                       C
                       D
                       E
                       F
                       G
                       H
                       I
                       J
                       K
                       L
                       M
                       N
                       O
                       P
                       Q
                       R
                       S
                       T
                       U
                       V
                       W
                       X
                       Y
                       Z
                       A1
                       B1
                       C1
                       D1
                       E1
                       F1
                       G1
                       H1
                       I1
                       J1
                       K1
                       L1
                       M1
                       N1
                       O1
                       P1
                       Q1
                       R1
                       S1
                       T1
                       U1
                       V1
                       W1
                       X1
                       Y1
                       Z1
                       A2
                       B2
                       C2
                       D2
                       E2
                       F2
                       G2
                       H2
                       I2
                       J2
                       K2
                       L2
                       M2
                       N2
                       O2
                       P2
                       Q2
                       R2
                       S2
                       T2
                       U2
                       V2
                       W2
                       X2
                       Y2
                       Z2
                       A3
                       B3
                       C3
                       D3
                       E3
                       F3
                       G3)
          a!10)))
     :weight 0))
